n_res = 4;
rc = [ 40, 38, 29, 35 ];
n_tasks = 30;
d = [ 7, 6, 9, 10, 3, 3, 10, 8, 7, 5, 9, 5, 10, 4, 7, 10, 5, 2, 4, 3, 9, 2, 8, 10, 5, 10, 7, 10, 8, 7 ];
rr = [| 40, 40, 40, 40, 40, 40, 40, 40, 40, 40, 40, 40, 40, 40, 40, 40, 40, 40, 40, 40, 40, 40, 40, 40, 40, 40, 40, 40, 40, 40
      | 38, 38, 38, 38, 38, 38, 38, 38, 38, 38, 38, 38, 38, 38, 38, 38, 38, 38, 38, 38, 38, 38, 38, 38, 38, 38, 38, 38, 38, 38
      | 29, 29, 29, 29, 29, 29, 29, 29, 29, 29, 29, 29, 29, 29, 29, 29, 29, 29, 29, 29, 29, 29, 29, 29, 29, 29, 29, 29, 29, 29
      | 35, 35, 35, 35, 35, 35, 35, 35, 35, 35, 35, 35, 35, 35, 35, 35, 35, 35, 35, 35, 35, 35, 35, 35, 35, 35, 35, 35, 35, 35|];
suc = [ { 6, 17, 18 },
       { 4, 11, 13 },
       { 5, 9, 14 },
       { 7, 8, 14 },
       { 10, 12 },
       { 15, 21 },
       { 24 },
       { 12 },
       { 19, 26 },
       { 30 },
       { 12 },
       { 22 },
       { 25 },
       { 16 },
       { 22 },
       { 18, 21 },
       { 26 },
       { 20, 27 },
       { 28 },
       { 23, 24 },
       { 22 },
       { 29 },
       { 30 },
       { 28 },
       { 26 },
       { 28 },
       { 29, 30 },
       {  },
       {  },
       {  } ];
